webassembly/ejemplos_results/14/folder14_json_77.txt
value = 14;
fgas = [1, 1, 1, 1, 1, 1, 1, 1, 1, 1, 1, 1, 1, 2];
fsize = [1, 1, 1, 1, 1, 1, 1, 1, 1, 1, 1, 1, 1, 1];
states = 
[|   in_0,   in_1,   in_2, in_3, in_4, in_5, '.', '.', '.', '.', '.'
 |   in_0,   in_1,   in_2, in_3, in_4, in_5, '.', '.', '.', '.', '.'
 |   in_0,   in_1,   in_2, in_3, in_4, in_5, '.', '.', '.', '.', '.'
 |   in_0,   in_1,   in_2, in_3, in_4, in_5, '.', '.', '.', '.', '.'
 |   in_2,   in_3,   in_4, in_5,  '.',  '.', '.', '.', '.', '.', '.'
 |   in_2,   in_3,   in_4, in_5,  '.',  '.', '.', '.', '.', '.', '.'
 | 's(0)',   in_3,   in_4, in_5,  '.',  '.', '.', '.', '.', '.', '.'
 |   in_5, 's(1)', 's(1)',  '.',  '.',  '.', '.', '.', '.', '.', '.'
 | 's(1)', 's(1)', 's(1)',  '.',  '.',  '.', '.', '.', '.', '.', '.'
 | 's(1)', 's(1)', 's(1)',  '.',  '.',  '.', '.', '.', '.', '.', '.'
 | 's(1)', 's(1)', 's(1)',  '.',  '.',  '.', '.', '.', '.', '.', '.'
 | 's(2)', 's(1)', 's(1)',  '.',  '.',  '.', '.', '.', '.', '.', '.'
 | 's(3)', 's(1)', 's(1)',  '.',  '.',  '.', '.', '.', '.', '.', '.'
 | 's(4)', 's(1)', 's(1)',  '.',  '.',  '.', '.', '.', '.', '.', '.'
 | 's(1)', 's(1)',    '.',  '.',  '.',  '.', '.', '.', '.', '.', '.'
 |];
register_states = 
[| local_0, local_1, '.', '.', '.', '.', '.'
 | local_0,    in_0, '.', '.', '.', '.', '.'
 |    in_0,    in_0, '.', '.', '.', '.', '.'
 |    in_0,    in_0, '.', '.', '.', '.', '.'
 |    in_0,    in_0, '.', '.', '.', '.', '.'
 |    in_0,    in_2, '.', '.', '.', '.', '.'
 |    in_0,    in_2, '.', '.', '.', '.', '.'
 |    in_0,    in_2, '.', '.', '.', '.', '.'
 |    in_0,    in_2, '.', '.', '.', '.', '.'
 |    in_0,  's(1)', '.', '.', '.', '.', '.'
 |  's(1)',  's(1)', '.', '.', '.', '.', '.'
 |  's(1)',  's(1)', '.', '.', '.', '.', '.'
 |  's(1)',  's(1)', '.', '.', '.', '.', '.'
 |  's(1)',  's(1)', '.', '.', '.', '.', '.'
 |  's(1)',  's(1)', '.', '.', '.', '.', '.'
 |];
program = [TEE(TEE2), TEE(TEE1), TEE(TEE2), O('i32.store8_0'), TEE(TEE2), O('i32.load8_u_1'), O('call[function_index(0)]_2'), O('i32.load16_s_3'), TEE(TEE2), TEE(TEE1), O('i32.load_7'), O('i32.load_8'), O('i32.load8_s_9'), POP];
% time elapsed: 0.44 s
----------
=====UNKNOWN=====
% time elapsed: 0.99 s
